* #variable= 100 #constraint= 252
****************************************
min: +10 x48 +10 x49 +10 x50 +10 x51 +10 x52 +10 x53 +10 x54 +10 x55 +10 x56 +10 x57 +10 x58 +10 x59 +10 x60 +10 x61 +10 x62 +10 x63 +10 x64 +10 x65 +10 x66 +10 x67 +10 x68 +10 x69 +10 x70 +10 x71 +10 x72 +10 x73 +10 x74 +10 x75 +10 x76 +10 x77 +10 x78 +10 x79 +10 x80 +10 x81 +10 x82 +10 x83 +10 x84 +10 x85 +10 x86 +10 x87 +1 x88 +1 x89 +1 x90 +1 x91 +1 x92 +1 x93 +1 x94 +1 x95 +1 x96 +1 x97 +1 x98 +1 x99 ;
+1 x0 +1 x1 +1 x4 +1 x5 +1 x48 >= 1 ;
-1 x0 +1 x1 -1 x4 +1 x5 +1 x48 >= -1 ;
+1 x0 -1 x1 +1 x4 -1 x5 +1 x48 >= -1 ;
-1 x0 -1 x1 -1 x4 -1 x5 +1 x48 >= -3 ;
+1 x0 +1 x1 +1 x10 +1 x11 +1 x49 >= 1 ;
-1 x0 +1 x1 -1 x10 +1 x11 +1 x49 >= -1 ;
+1 x0 -1 x1 +1 x10 -1 x11 +1 x49 >= -1 ;
-1 x0 -1 x1 -1 x10 -1 x11 +1 x49 >= -3 ;
+1 x0 -1 x2 -1 x88 <= 0 ;
-1 x0 +1 x2 -1 x88 <= 0 ;
+1 x1 -1 x3 -1 x88 <= 0 ;
-1 x1 +1 x3 -1 x88 <= 0 ;
+1 x2 +1 x3 +1 x34 +1 x35 +1 x50 >= 1 ;
-1 x2 +1 x3 -1 x34 +1 x35 +1 x50 >= -1 ;
+1 x2 -1 x3 +1 x34 -1 x35 +1 x50 >= -1 ;
-1 x2 -1 x3 -1 x34 -1 x35 +1 x50 >= -3 ;
+1 x2 +1 x3 +1 x36 +1 x37 +1 x50 >= 1 ;
-1 x2 +1 x3 -1 x36 +1 x37 +1 x50 >= -1 ;
+1 x2 -1 x3 +1 x36 -1 x37 +1 x50 >= -1 ;
-1 x2 -1 x3 -1 x36 -1 x37 +1 x50 >= -3 ;
+1 x2 +1 x3 +1 x42 +1 x43 +1 x51 >= 1 ;
-1 x2 +1 x3 -1 x42 +1 x43 +1 x51 >= -1 ;
+1 x2 -1 x3 +1 x42 -1 x43 +1 x51 >= -1 ;
-1 x2 -1 x3 -1 x42 -1 x43 +1 x51 >= -3 ;
+1 x4 +1 x5 +1 x10 +1 x11 +1 x53 >= 1 ;
-1 x4 +1 x5 -1 x10 +1 x11 +1 x53 >= -1 ;
+1 x4 -1 x5 +1 x10 -1 x11 +1 x53 >= -1 ;
-1 x4 -1 x5 -1 x10 -1 x11 +1 x53 >= -3 ;
+1 x4 +1 x5 +1 x12 +1 x13 +1 x54 >= 1 ;
-1 x4 +1 x5 -1 x12 +1 x13 +1 x54 >= -1 ;
+1 x4 -1 x5 +1 x12 -1 x13 +1 x54 >= -1 ;
-1 x4 -1 x5 -1 x12 -1 x13 +1 x54 >= -3 ;
+1 x4 +1 x5 +1 x46 +1 x47 +1 x55 >= 1 ;
-1 x4 +1 x5 -1 x46 +1 x47 +1 x55 >= -1 ;
+1 x4 -1 x5 +1 x46 -1 x47 +1 x55 >= -1 ;
-1 x4 -1 x5 -1 x46 -1 x47 +1 x55 >= -3 ;
+1 x4 -1 x6 -1 x89 <= 0 ;
-1 x4 +1 x6 -1 x89 <= 0 ;
+1 x5 -1 x7 -1 x89 <= 0 ;
-1 x5 +1 x7 -1 x89 <= 0 ;
+1 x6 +1 x7 +1 x10 +1 x11 +1 x53 >= 1 ;
-1 x6 +1 x7 -1 x10 +1 x11 +1 x53 >= -1 ;
+1 x6 -1 x7 +1 x10 -1 x11 +1 x53 >= -1 ;
-1 x6 -1 x7 -1 x10 -1 x11 +1 x53 >= -3 ;
+1 x6 +1 x7 +1 x12 +1 x13 +1 x54 >= 1 ;
-1 x6 +1 x7 -1 x12 +1 x13 +1 x54 >= -1 ;
+1 x6 -1 x7 +1 x12 -1 x13 +1 x54 >= -1 ;
-1 x6 -1 x7 -1 x12 -1 x13 +1 x54 >= -3 ;
+1 x6 +1 x7 +1 x14 +1 x15 +1 x54 >= 1 ;
-1 x6 +1 x7 -1 x14 +1 x15 +1 x54 >= -1 ;
+1 x6 -1 x7 +1 x14 -1 x15 +1 x54 >= -1 ;
-1 x6 -1 x7 -1 x14 -1 x15 +1 x54 >= -3 ;
+1 x6 +1 x7 +1 x46 +1 x47 +1 x55 >= 1 ;
-1 x6 +1 x7 -1 x46 +1 x47 +1 x55 >= -1 ;
+1 x6 -1 x7 +1 x46 -1 x47 +1 x55 >= -1 ;
-1 x6 -1 x7 -1 x46 -1 x47 +1 x55 >= -3 ;
+1 x6 -1 x8 -1 x90 <= 0 ;
-1 x6 +1 x8 -1 x90 <= 0 ;
+1 x7 -1 x9 -1 x90 <= 0 ;
-1 x7 +1 x9 -1 x90 <= 0 ;
+1 x8 +1 x9 +1 x12 +1 x13 +1 x54 >= 1 ;
-1 x8 +1 x9 -1 x12 +1 x13 +1 x54 >= -1 ;
+1 x8 -1 x9 +1 x12 -1 x13 +1 x54 >= -1 ;
-1 x8 -1 x9 -1 x12 -1 x13 +1 x54 >= -3 ;
+1 x8 +1 x9 +1 x14 +1 x15 +1 x54 >= 1 ;
-1 x8 +1 x9 -1 x14 +1 x15 +1 x54 >= -1 ;
+1 x8 -1 x9 +1 x14 -1 x15 +1 x54 >= -1 ;
-1 x8 -1 x9 -1 x14 -1 x15 +1 x54 >= -3 ;
+1 x8 +1 x9 +1 x46 +1 x47 +1 x55 >= 1 ;
-1 x8 +1 x9 -1 x46 +1 x47 +1 x55 >= -1 ;
+1 x8 -1 x9 +1 x46 -1 x47 +1 x55 >= -1 ;
-1 x8 -1 x9 -1 x46 -1 x47 +1 x55 >= -3 ;
+1 x10 +1 x11 +1 x12 +1 x13 +1 x58 >= 1 ;
-1 x10 +1 x11 -1 x12 +1 x13 +1 x58 >= -1 ;
+1 x10 -1 x11 +1 x12 -1 x13 +1 x58 >= -1 ;
-1 x10 -1 x11 -1 x12 -1 x13 +1 x58 >= -3 ;
+1 x10 +1 x11 +1 x40 +1 x41 +1 x59 >= 1 ;
-1 x10 +1 x11 -1 x40 +1 x41 +1 x59 >= -1 ;
+1 x10 -1 x11 +1 x40 -1 x41 +1 x59 >= -1 ;
-1 x10 -1 x11 -1 x40 -1 x41 +1 x59 >= -3 ;
+1 x12 +1 x13 +1 x28 +1 x29 +1 x62 >= 1 ;
-1 x12 +1 x13 -1 x28 +1 x29 +1 x62 >= -1 ;
+1 x12 -1 x13 +1 x28 -1 x29 +1 x62 >= -1 ;
-1 x12 -1 x13 -1 x28 -1 x29 +1 x62 >= -3 ;
+1 x12 +1 x13 +1 x40 +1 x41 +1 x63 >= 1 ;
-1 x12 +1 x13 -1 x40 +1 x41 +1 x63 >= -1 ;
+1 x12 -1 x13 +1 x40 -1 x41 +1 x63 >= -1 ;
-1 x12 -1 x13 -1 x40 -1 x41 +1 x63 >= -3 ;
+1 x12 -1 x14 -1 x91 <= 0 ;
-1 x12 +1 x14 -1 x91 <= 0 ;
+1 x13 -1 x15 -1 x91 <= 0 ;
-1 x13 +1 x15 -1 x91 <= 0 ;
+1 x14 +1 x15 +1 x28 +1 x29 +1 x62 >= 1 ;
-1 x14 +1 x15 -1 x28 +1 x29 +1 x62 >= -1 ;
+1 x14 -1 x15 +1 x28 -1 x29 +1 x62 >= -1 ;
-1 x14 -1 x15 -1 x28 -1 x29 +1 x62 >= -3 ;
+1 x14 +1 x15 +1 x30 +1 x31 +1 x62 >= 1 ;
-1 x14 +1 x15 -1 x30 +1 x31 +1 x62 >= -1 ;
+1 x14 -1 x15 +1 x30 -1 x31 +1 x62 >= -1 ;
-1 x14 -1 x15 -1 x30 -1 x31 +1 x62 >= -3 ;
+1 x14 +1 x15 +1 x32 +1 x33 +1 x62 >= 1 ;
-1 x14 +1 x15 -1 x32 +1 x33 +1 x62 >= -1 ;
+1 x14 -1 x15 +1 x32 -1 x33 +1 x62 >= -1 ;
-1 x14 -1 x15 -1 x32 -1 x33 +1 x62 >= -3 ;
+1 x14 +1 x15 +1 x40 +1 x41 +1 x63 >= 1 ;
-1 x14 +1 x15 -1 x40 +1 x41 +1 x63 >= -1 ;
+1 x14 -1 x15 +1 x40 -1 x41 +1 x63 >= -1 ;
-1 x14 -1 x15 -1 x40 -1 x41 +1 x63 >= -3 ;
+1 x14 -1 x16 -1 x92 <= 0 ;
-1 x14 +1 x16 -1 x92 <= 0 ;
+1 x15 -1 x17 -1 x92 <= 0 ;
-1 x15 +1 x17 -1 x92 <= 0 ;
+1 x16 +1 x17 +1 x22 +1 x23 +1 x64 >= 1 ;
-1 x16 +1 x17 -1 x22 +1 x23 +1 x64 >= -1 ;
+1 x16 -1 x17 +1 x22 -1 x23 +1 x64 >= -1 ;
-1 x16 -1 x17 -1 x22 -1 x23 +1 x64 >= -3 ;
+1 x16 +1 x17 +1 x24 +1 x25 +1 x64 >= 1 ;
-1 x16 +1 x17 -1 x24 +1 x25 +1 x64 >= -1 ;
+1 x16 -1 x17 +1 x24 -1 x25 +1 x64 >= -1 ;
-1 x16 -1 x17 -1 x24 -1 x25 +1 x64 >= -3 ;
+1 x16 +1 x17 +1 x28 +1 x29 +1 x62 >= 1 ;
-1 x16 +1 x17 -1 x28 +1 x29 +1 x62 >= -1 ;
+1 x16 -1 x17 +1 x28 -1 x29 +1 x62 >= -1 ;
-1 x16 -1 x17 -1 x28 -1 x29 +1 x62 >= -3 ;
+1 x16 +1 x17 +1 x30 +1 x31 +1 x62 >= 1 ;
-1 x16 +1 x17 -1 x30 +1 x31 +1 x62 >= -1 ;
+1 x16 -1 x17 +1 x30 -1 x31 +1 x62 >= -1 ;
-1 x16 -1 x17 -1 x30 -1 x31 +1 x62 >= -3 ;
+1 x16 +1 x17 +1 x32 +1 x33 +1 x62 >= 1 ;
-1 x16 +1 x17 -1 x32 +1 x33 +1 x62 >= -1 ;
+1 x16 -1 x17 +1 x32 -1 x33 +1 x62 >= -1 ;
-1 x16 -1 x17 -1 x32 -1 x33 +1 x62 >= -3 ;
+1 x18 +1 x19 +1 x26 +1 x27 +1 x65 >= 1 ;
-1 x18 +1 x19 -1 x26 +1 x27 +1 x65 >= -1 ;
+1 x18 -1 x19 +1 x26 -1 x27 +1 x65 >= -1 ;
-1 x18 -1 x19 -1 x26 -1 x27 +1 x65 >= -3 ;
+1 x18 +1 x19 +1 x38 +1 x39 +1 x66 >= 1 ;
-1 x18 +1 x19 -1 x38 +1 x39 +1 x66 >= -1 ;
+1 x18 -1 x19 +1 x38 -1 x39 +1 x66 >= -1 ;
-1 x18 -1 x19 -1 x38 -1 x39 +1 x66 >= -3 ;
+1 x18 +1 x19 +1 x44 +1 x45 +1 x67 >= 1 ;
-1 x18 +1 x19 -1 x44 +1 x45 +1 x67 >= -1 ;
+1 x18 -1 x19 +1 x44 -1 x45 +1 x67 >= -1 ;
-1 x18 -1 x19 -1 x44 -1 x45 +1 x67 >= -3 ;
+1 x18 -1 x20 -1 x93 <= 0 ;
-1 x18 +1 x20 -1 x93 <= 0 ;
+1 x19 -1 x21 -1 x93 <= 0 ;
-1 x19 +1 x21 -1 x93 <= 0 ;
+1 x20 +1 x21 +1 x26 +1 x27 +1 x65 >= 1 ;
-1 x20 +1 x21 -1 x26 +1 x27 +1 x65 >= -1 ;
+1 x20 -1 x21 +1 x26 -1 x27 +1 x65 >= -1 ;
-1 x20 -1 x21 -1 x26 -1 x27 +1 x65 >= -3 ;
+1 x20 +1 x21 +1 x44 +1 x45 +1 x67 >= 1 ;
-1 x20 +1 x21 -1 x44 +1 x45 +1 x67 >= -1 ;
+1 x20 -1 x21 +1 x44 -1 x45 +1 x67 >= -1 ;
-1 x20 -1 x21 -1 x44 -1 x45 +1 x67 >= -3 ;
+1 x20 -1 x22 -1 x94 <= 0 ;
-1 x20 +1 x22 -1 x94 <= 0 ;
+1 x21 -1 x23 -1 x94 <= 0 ;
-1 x21 +1 x23 -1 x94 <= 0 ;
+1 x22 +1 x23 +1 x26 +1 x27 +1 x65 >= 1 ;
-1 x22 +1 x23 -1 x26 +1 x27 +1 x65 >= -1 ;
+1 x22 -1 x23 +1 x26 -1 x27 +1 x65 >= -1 ;
-1 x22 -1 x23 -1 x26 -1 x27 +1 x65 >= -3 ;
+1 x22 +1 x23 +1 x30 +1 x31 +1 x69 >= 1 ;
-1 x22 +1 x23 -1 x30 +1 x31 +1 x69 >= -1 ;
+1 x22 -1 x23 +1 x30 -1 x31 +1 x69 >= -1 ;
-1 x22 -1 x23 -1 x30 -1 x31 +1 x69 >= -3 ;
+1 x22 +1 x23 +1 x32 +1 x33 +1 x69 >= 1 ;
-1 x22 +1 x23 -1 x32 +1 x33 +1 x69 >= -1 ;
+1 x22 -1 x23 +1 x32 -1 x33 +1 x69 >= -1 ;
-1 x22 -1 x23 -1 x32 -1 x33 +1 x69 >= -3 ;
+1 x22 -1 x24 -1 x95 <= 0 ;
-1 x22 +1 x24 -1 x95 <= 0 ;
+1 x23 -1 x25 -1 x95 <= 0 ;
-1 x23 +1 x25 -1 x95 <= 0 ;
+1 x28 +1 x29 +1 x36 +1 x37 +1 x72 >= 1 ;
-1 x28 +1 x29 -1 x36 +1 x37 +1 x72 >= -1 ;
+1 x28 -1 x29 +1 x36 -1 x37 +1 x72 >= -1 ;
-1 x28 -1 x29 -1 x36 -1 x37 +1 x72 >= -3 ;
+1 x28 +1 x29 +1 x38 +1 x39 +1 x72 >= 1 ;
-1 x28 +1 x29 -1 x38 +1 x39 +1 x72 >= -1 ;
+1 x28 -1 x29 +1 x38 -1 x39 +1 x72 >= -1 ;
-1 x28 -1 x29 -1 x38 -1 x39 +1 x72 >= -3 ;
+1 x28 -1 x30 -1 x96 <= 0 ;
-1 x28 +1 x30 -1 x96 <= 0 ;
+1 x29 -1 x31 -1 x96 <= 0 ;
-1 x29 +1 x31 -1 x96 <= 0 ;
+1 x30 +1 x31 +1 x38 +1 x39 +1 x72 >= 1 ;
-1 x30 +1 x31 -1 x38 +1 x39 +1 x72 >= -1 ;
+1 x30 -1 x31 +1 x38 -1 x39 +1 x72 >= -1 ;
-1 x30 -1 x31 -1 x38 -1 x39 +1 x72 >= -3 ;
+1 x30 -1 x32 -1 x97 <= 0 ;
-1 x30 +1 x32 -1 x97 <= 0 ;
+1 x31 -1 x33 -1 x97 <= 0 ;
-1 x31 +1 x33 -1 x97 <= 0 ;
+1 x34 +1 x35 +1 x40 +1 x41 +1 x75 >= 1 ;
-1 x34 +1 x35 -1 x40 +1 x41 +1 x75 >= -1 ;
+1 x34 -1 x35 +1 x40 -1 x41 +1 x75 >= -1 ;
-1 x34 -1 x35 -1 x40 -1 x41 +1 x75 >= -3 ;
+1 x34 +1 x35 +1 x42 +1 x43 +1 x76 >= 1 ;
-1 x34 +1 x35 -1 x42 +1 x43 +1 x76 >= -1 ;
+1 x34 -1 x35 +1 x42 -1 x43 +1 x76 >= -1 ;
-1 x34 -1 x35 -1 x42 -1 x43 +1 x76 >= -3 ;
+1 x34 -1 x36 -1 x98 <= 0 ;
-1 x34 +1 x36 -1 x98 <= 0 ;
+1 x35 -1 x37 -1 x98 <= 0 ;
-1 x35 +1 x37 -1 x98 <= 0 ;
+1 x36 +1 x37 +1 x40 +1 x41 +1 x75 >= 1 ;
-1 x36 +1 x37 -1 x40 +1 x41 +1 x75 >= -1 ;
+1 x36 -1 x37 +1 x40 -1 x41 +1 x75 >= -1 ;
-1 x36 -1 x37 -1 x40 -1 x41 +1 x75 >= -3 ;
+1 x36 +1 x37 +1 x42 +1 x43 +1 x76 >= 1 ;
-1 x36 +1 x37 -1 x42 +1 x43 +1 x76 >= -1 ;
+1 x36 -1 x37 +1 x42 -1 x43 +1 x76 >= -1 ;
-1 x36 -1 x37 -1 x42 -1 x43 +1 x76 >= -3 ;
+1 x36 +1 x37 +1 x44 +1 x45 +1 x78 >= 1 ;
-1 x36 +1 x37 -1 x44 +1 x45 +1 x78 >= -1 ;
+1 x36 -1 x37 +1 x44 -1 x45 +1 x78 >= -1 ;
-1 x36 -1 x37 -1 x44 -1 x45 +1 x78 >= -3 ;
+1 x36 -1 x38 -1 x99 <= 0 ;
-1 x36 +1 x38 -1 x99 <= 0 ;
+1 x37 -1 x39 -1 x99 <= 0 ;
-1 x37 +1 x39 -1 x99 <= 0 ;
+1 x38 +1 x39 +1 x44 +1 x45 +1 x78 >= 1 ;
-1 x38 +1 x39 -1 x44 +1 x45 +1 x78 >= -1 ;
+1 x38 -1 x39 +1 x44 -1 x45 +1 x78 >= -1 ;
-1 x38 -1 x39 -1 x44 -1 x45 +1 x78 >= -3 ;
+1 x0 +1 x1 <= 1 ;
+1 x2 +1 x3 <= 1 ;
+1 x4 +1 x5 <= 1 ;
+1 x6 +1 x7 <= 1 ;
+1 x8 +1 x9 <= 1 ;
+1 x10 +1 x11 <= 1 ;
+1 x12 +1 x13 <= 1 ;
+1 x14 +1 x15 <= 1 ;
+1 x16 +1 x17 <= 1 ;
+1 x18 +1 x19 <= 1 ;
+1 x20 +1 x21 <= 1 ;
+1 x22 +1 x23 <= 1 ;
+1 x24 +1 x25 <= 1 ;
+1 x26 +1 x27 <= 1 ;
+1 x28 +1 x29 <= 1 ;
+1 x30 +1 x31 <= 1 ;
+1 x32 +1 x33 <= 1 ;
+1 x34 +1 x35 <= 1 ;
+1 x36 +1 x37 <= 1 ;
+1 x38 +1 x39 <= 1 ;
+1 x40 +1 x41 <= 1 ;
+1 x42 +1 x43 <= 1 ;
+1 x44 +1 x45 <= 1 ;
+1 x46 +1 x47 <= 1 ;
